LAMMPS (11 May 2018)
  using 4 OpenMP thread(s) per MPI task
units real
atom_style full

bond_style table linear 301
pair_style polir/vdw 6.0

neigh_modify every 1 delay 1
neighbor 0.3 bin

read_data "125wat.data"
  orthogonal box = (0 0 0) to (7.5 7.5 7.5)
  1 by 1 by 1 MPI processor grid
  reading atoms ...
  375 atoms
  scanning bonds ...
  2 = max bonds/atom
  reading bonds ...
  250 bonds
  2 = max # of 1-2 neighbors
  1 = max # of 1-3 neighbors
  1 = max # of 1-4 neighbors
  2 = max # of special neighbors

# No non-bonded interactions
pair_coeff 1 1 7.61978e-09 -4.07504e-07 5.80846e-06 -0.00292171
pair_coeff 1 2 0.0 0.0 0.0 0.0
pair_coeff 2 2 0.0 0.0 0.0 0.0

bond_coeff 1 PS_bond_potential.table POLIR
WARNING: 5 of 301 force values in table are inconsistent with -dE/dr.
  Should only be flagged at inflection points (../bond_table.cpp:380)

timestep 1.0

variable temp equal 300.0
velocity all create ${temp} 1091823 rot yes dist gaussian
velocity all create 300 1091823 rot yes dist gaussian
fix f1 all nvt temp ${temp} ${temp} 1000.0
fix f1 all nvt temp 300 ${temp} 1000.0
fix f1 all nvt temp 300 300 1000.0

thermo 10
thermo_style custom step temp press pe ebond ke

dump d1 all dcd 10 dump.dcd
dump_modify d1 unwrap yes

run 1000
Neighbor list info ...
  update every 1 steps, delay 1 steps, check yes
  max neighbors/atom: 2000, page size: 100000
  master list distance cutoff = 6.3
  ghost atom cutoff = 6.3
  binsize = 3.15, bins = 3 3 3
  1 neighbor lists, perpetual/occasional/extra = 1 0 0
  (1) pair polir/vdw, perpetual
      attributes: half, newton on
      pair build: half/bin/newton
      stencil: half/bin/3d/newton
      bin: standard
Per MPI rank memory allocation (min/avg/max) = 9.519 | 9.519 | 9.519 Mbytes
Step Temp Press PotEng E_bond KinEng 
       0          300   -232393.29      37.5624    37.696149    334.44689 
      10    294.19591   -220902.74    49.644326    49.780591    327.97635 
      20     281.0252   -174145.43    70.112845    70.257319    313.29334 
      30    269.98055    -102407.8    87.997411    88.158026    300.98051 
      40    268.28954   -25465.956    91.925004    92.114777    299.09534 
      50    273.54332    37728.127    84.021384    84.264344    304.95237 
      60    277.79908    77225.364    77.489173    77.832131     309.6968 
      70    277.77695    91100.052    77.163835    77.701604    309.67212 
      80    275.34103     81410.01    80.385025    81.362685     306.9565 
      90    272.92758    59388.724    84.224387    86.015257    304.26593 
     100    271.06424    39976.959    90.236958    89.090445    302.18864 
     110    272.47917    27447.815    85.829819    88.769067    303.76603 
     120    272.21092    20012.501    86.748788    90.487063    303.46698 
     130    271.22487    9650.1894    88.698901    91.806304    302.36771 
     140    270.63359   -3770.8526    92.542225    91.624387    301.70854 
     150    272.92841   -18404.598    85.204161    91.573576    304.26686 
     160    272.57155    -22430.93    85.407845    91.290902    303.86902 
     170    273.22267   -12805.264    84.211301    89.197439     304.5949 
     180    275.35471    4050.4694    81.480107    86.241394    306.97175 
     190    277.85758    18838.188    76.607555    82.842807    309.76201 
     200    278.57939    22816.642    75.404032     81.52188    310.56669 
     210    277.67257    14046.236    77.769608    82.731704    309.55576 
     220    277.60848   -3501.2764     78.54636    83.751222    309.48431 
     230    277.25019    -22542.47    79.786556    83.794888    309.08488 
     240    275.91064   -37557.291    81.975874    85.947057    307.59152 
     250    274.62157   -47776.368    84.408505    88.793544    306.15443 
     260    275.47323   -55411.005    82.548814    87.618835    307.10388 
     270    275.98378   -57932.105    83.521564    85.862855    307.67305 
     280    276.55625   -54743.156     81.52303     86.84413    308.31126 
     290    275.15712   -47086.784    83.567683     89.96149    306.75147 
     300    273.98163   -39879.236    86.583955    92.974302    305.44101 
     310    274.30257    -34380.12    86.895352     92.11504     305.7988 
     320    276.23466   -28137.289    83.205481    89.055293    307.95274 
     330    278.22762   -18907.562    81.056933    86.028395    310.17453 
     340     279.7252   -5759.1356    77.030881    83.911422    311.84407 
     350    278.95335    16508.621    78.094329    84.551471     310.9836 
     360    278.35519    43718.742    80.078677    86.010424    310.31676 
     370    277.79418    70651.854    81.108782    87.332862    309.69133 
     380    277.58173    92275.237    82.776203    88.174847    309.45448 
     390    280.73154    100759.67    77.603862     83.06361    312.96597 
     400    284.96656    98282.066    70.468578    76.752151    317.68727 
     410     285.8899    90347.885     70.60927    75.994056    318.71662 
     420    283.72768    76882.937    73.448632    81.694723    316.30613 
     430    279.00528    57577.107     82.33111    89.522623     311.0415 
     440    276.23872    30664.912    85.578338    95.088366    307.95726 
     450    273.16171     371.7117    91.824073    98.624944    304.52695 
     460    272.03194   -23450.148    93.396101    100.30849    303.26745 
     470    272.58549   -32777.515     92.43363    98.993687    303.88456 
     480    274.61836   -30130.977    89.677793    95.206371    306.15086 
     490    278.10757   -24149.456    84.165901    89.858222    310.04071 
     500    279.14116   -21263.003    85.553055    85.392806    311.19297 
     510     280.6685   -25649.807     80.00557    86.007414    312.89569 
     520    279.13064   -32277.355    83.384701    89.823442    311.18125 
     530    277.58335   -36369.357    87.781603    92.881221    309.45629 
     540    278.02456   -34487.055    86.755502    93.341589    309.94816 
     550    278.49691   -26957.946      85.9383    92.625007    310.47475 
     560    278.85083   -22332.318    86.064299    90.180281    310.86931 
     570    281.48748   -24754.531    81.655124    88.081007    313.80871 
     580    282.05973   -26212.477    82.264284    87.596172    314.44666 
     590    280.71087   -20399.876    85.181538    89.590687    312.94292 
     600    278.90936   -7836.1377    88.473516     92.02122    310.93456 
     610    278.37173     6797.242    89.790216    93.653924     310.3352 
     620    279.69537    19866.728    88.283664    92.059408    311.81082 
     630    283.60314    30644.976    83.340775    85.649516    316.16729 
     640    287.73988    39319.174     76.07144    80.089341    320.77902 
     650    286.01305    49915.483    79.164111    83.372004    318.85391 
     660    281.42612    60045.142    87.919997     91.12694     313.7403 
     670    278.53611    66517.926     94.17427    96.416907    310.51846 
     680    279.36759    69424.469    92.549312    97.106671     311.4454 
     690    281.45018    69133.858    89.604502    93.804037    313.76712 
     700    284.79849    65399.412    84.235551     88.07525     317.4999 
     710    288.83532    54411.316     78.14914    81.974371    322.00025 
     720     291.3626    35500.601     75.18393    79.060397    324.81772 
     730    291.47231     14010.78    75.663933    80.118271    324.94002 
     740    290.41461    -5518.216    77.641411    82.767565    323.76087 
     750    289.62143   -22597.793    80.295096    85.785022    322.87662 
     760    288.71132   -38719.552    82.119939    86.816726    321.86201 
     770    287.07004   -48278.675    87.439887    89.318641    320.03227 
     780    287.99704   -50149.731    84.057162    91.223539    321.06572 
     790      289.493   -46741.782    82.521308    88.589593    322.73344 
     800    292.64447   -43109.817    77.249343    83.982696    326.24677 
     810    293.54026   -35748.191    77.370228    82.039304    327.24543 
     820    291.45748   -22531.081    81.988789    85.795806    324.92349 
     830    287.94512   -3568.3936    86.836055    92.024502    321.00784 
     840    286.06012    24118.497     90.99959    95.502257    318.90639 
     850     287.7607    55166.785    90.324919    93.051055    320.80224 
     860    291.89299    78501.628    83.512557     87.13619      325.409 
     870     293.1684    88120.304    83.871755    85.405331    326.83087 
     880    292.49659    79153.878    84.187547    88.430717    326.08191 
     890    289.75927    54732.114    88.330607    93.481905    323.03029 
     900    286.39114    20919.347    95.973143    98.401121    319.27541 
     910    287.00929   -15800.022    94.710078     100.1005    319.96455 
     920    289.54001     -46502.5    91.924442    96.242258    322.78586 
     930    294.11646   -66009.433    84.635025    89.497947    327.88778 
     940    296.06001   -72248.707    83.105434    86.292654     330.0545 
     950     295.2173   -69437.987    84.331275    88.568401    329.11502 
     960    289.55391   -61843.442    102.14793    93.508898    322.80134 
     970    292.54335   -61226.292    89.600168     94.43501    326.13404 
     980    294.33102   -61756.233    87.978195    92.219042    328.12698 
     990     294.9002   -61341.384    87.744643    91.826733    328.76152 
    1000    293.89846   -58387.058    90.246651    94.330711    327.64475 
Loop time of 5.08356 on 4 procs for 1000 steps with 375 atoms

Performance: 16.996 ns/day, 1.412 hours/ns, 196.712 timesteps/s
100.0% CPU use with 1 MPI tasks x 4 OpenMP threads

MPI task timing breakdown:
Section |  min time  |  avg time  |  max time  |%varavg| %total
---------------------------------------------------------------
Pair    | 3.6194     | 3.6194     | 3.6194     |   0.0 | 71.20
Bond    | 0.0072322  | 0.0072322  | 0.0072322  |   0.0 |  0.14
Neigh   | 1.3639     | 1.3639     | 1.3639     |   0.0 | 26.83
Comm    | 0.05839    | 0.05839    | 0.05839    |   0.0 |  1.15
Output  | 0.012829   | 0.012829   | 0.012829   |   0.0 |  0.25
Modify  | 0.0082037  | 0.0082037  | 0.0082037  |   0.0 |  0.16
Other   |            | 0.01364    |            |       |  0.27

Nlocal:    375 ave 375 max 375 min
Histogram: 1 0 0 0 0 0 0 0 0 0
Nghost:    6894 ave 6894 max 6894 min
Histogram: 1 0 0 0 0 0 0 0 0 0
Neighs:    173423 ave 173423 max 173423 min
Histogram: 1 0 0 0 0 0 0 0 0 0

Total # of neighbors = 173423
Ave neighs/atom = 462.461
Ave special neighs/atom = 2
Neighbor list builds = 310
Dangerous builds = 0
quit
