LAMMPS (11 May 2018)
  using 4 OpenMP thread(s) per MPI task
units real
atom_style full

bond_style table linear 301
pair_style polir/vdw 6.0

neigh_modify every 1 delay 1
neighbor 0.3 bin

read_data "125wat.data"
  orthogonal box = (0 0 0) to (7.5 7.5 7.5)
  1 by 2 by 2 MPI processor grid
  reading atoms ...
  375 atoms
  scanning bonds ...
  2 = max bonds/atom
  reading bonds ...
  250 bonds
  2 = max # of 1-2 neighbors
  1 = max # of 1-3 neighbors
  1 = max # of 1-4 neighbors
  2 = max # of special neighbors

# VdW interactions
pair_coeff 1 1 7.61978e-09 -4.07504e-07 5.80846e-06 -0.00292171
pair_coeff 1 2 0.0 0.0 0.0 0.0
pair_coeff 2 2 0.0 0.0 0.0 0.0

bond_coeff 1 PS_bond_potential.table POLIR
WARNING: 5 of 301 force values in table are inconsistent with -dE/dr.
  Should only be flagged at inflection points (../bond_table.cpp:380)

timestep 1.0

variable temp equal 300.0
velocity all create ${temp} 1091823 rot yes dist gaussian
velocity all create 300 1091823 rot yes dist gaussian
fix f1 all nvt temp ${temp} ${temp} 1000.0
fix f1 all nvt temp 300 ${temp} 1000.0
fix f1 all nvt temp 300 300 1000.0

thermo 10
thermo_style custom step temp press pe ebond ke

dump d1 all dcd 10 dump.dcd
dump_modify d1 unwrap yes

run 1000
Neighbor list info ...
  update every 1 steps, delay 1 steps, check yes
  max neighbors/atom: 2000, page size: 100000
  master list distance cutoff = 6.3
  ghost atom cutoff = 6.3
  binsize = 3.15, bins = 3 3 3
  1 neighbor lists, perpetual/occasional/extra = 1 0 0
  (1) pair polir/vdw, perpetual
      attributes: half, newton on
      pair build: half/bin/newton
      stencil: half/bin/3d/newton
      bin: standard
Per MPI rank memory allocation (min/avg/max) = 8.866 | 8.966 | 9.252 Mbytes
Step Temp Press PotEng E_bond KinEng 
       0          300   -232393.29      37.5624    37.696149    334.44689 
      10    294.19591   -220902.74    49.644326    49.780591    327.97635 
      20     281.0252   -174145.42    70.112845    70.257319    313.29334 
      30    269.98055    -102407.8    87.997411    88.158026    300.98051 
      40    268.28954   -25465.955    91.925004    92.114777    299.09534 
      50    273.54332    37728.127    84.021383    84.264344    304.95237 
      60    277.79908    77225.366    77.489173     77.83213     309.6968 
      70    277.77694    91100.052    77.163835    77.701603    309.67211 
      80    275.34103    81410.011    80.385024    81.362684     306.9565 
      90    272.92757    59388.724    84.224387    86.015257    304.26593 
     100    271.06424    39976.955    90.236958    89.090445    302.18863 
     110    272.47917    27447.811    85.829824    88.769068    303.76603 
     120    272.21092    20012.496    86.748784    90.487064    303.46698 
     130    271.22487    9650.1858    88.698901    91.806303    302.36771 
     140    270.63358   -3770.8556    92.542229    91.624385    301.70853 
     150    272.92841   -18404.599    85.204159    91.573576    304.26686 
     160    272.57155   -22430.924    85.407843    91.290904    303.86902 
     170    273.22266   -12805.248    84.211318    89.197443    304.59489 
     180     275.3547    4050.4896    81.480105      86.2414    306.97174 
     190    277.85757    18838.212    76.607565    82.842814      309.762 
     200    278.57938    22816.666    75.404039    81.521884    310.56669 
     210    277.67257    14046.258     77.76961    82.731703    309.55576 
     220    277.60848   -3501.2572    78.546356    83.751216    309.48431 
     230    277.25019   -22542.456    79.786548     83.79488    309.08488 
     240    275.91064   -37557.266    81.975873    85.947053    307.59151 
     250    274.62157   -47776.331    84.408503     88.79354    306.15443 
     260    275.47323   -55410.964    82.548809    87.618836    307.10388 
     270    275.98377   -57932.058    83.521593    85.862854    307.67304 
     280    276.55625   -54743.108     81.52302    86.844127    308.31126 
     290    275.15712   -47086.738    83.567679    89.961491    306.75147 
     300    273.98162    -39879.19    86.583956     92.97431      305.441 
     310    274.30255   -34380.062    86.895378    92.115051    305.79878 
     320    276.23465   -28137.233      83.2055    89.055297    307.95273 
     330    278.22762   -18907.522    81.056924     86.02839    310.17453 
     340     279.7252    -5759.102    77.030872    83.911407    311.84407 
     350    278.95335    16508.652    78.094334    84.551466    310.98359 
     360    278.35518    43718.777    80.078698    86.010436    310.31674 
     370    277.79418    70651.892    81.108786    87.332876    309.69132 
     380    277.58173    92275.283    82.776189    88.174848    309.45449 
     390    280.73157    100759.69     77.60381     83.06359    312.96599 
     400     284.9666    98282.055    70.468498    76.752114     317.6873 
     410    285.88992    90347.826     70.60921    75.994031    318.71665 
     420    283.72769    76882.834    73.448578    81.694717    316.30615 
     430     279.0053    57576.984    82.331082    89.522631    311.04151 
     440    276.23873    30664.762     85.57829    95.088325    307.95728 
     450    273.16172    371.60802    91.824057    98.624919    304.52696 
     460    272.03192    -23450.16    93.396124    100.30849    303.26743 
     470    272.58547   -32777.426    92.433631      98.9937    303.88454 
     480    274.61833   -30130.789    89.677844    95.206369    306.15082 
     490    278.10753   -24149.247    84.165967    89.858238    310.04066 
     500    279.14141   -21263.141    85.551779    85.392859    311.19325 
     510    280.66841   -25649.904    80.005705    86.007534    312.89559 
     520    279.13053   -32277.616    83.384859     89.82358    311.18113 
     530    277.58329   -36369.695    87.781664    92.881359    309.45623 
     540    278.02455   -34487.429    86.755525    93.341623    309.94815 
     550    278.49692   -26958.297     85.93834    92.624989    310.47476 
     560    278.85087   -22332.584    86.064235    90.180199    310.86936 
     570    281.48759   -24754.567    81.655019    88.080918    313.80883 
     580    282.05986   -26212.048    82.264095    87.595987    314.44681 
     590    280.71099   -20398.785    85.181441    89.590574    312.94306 
     600    278.90952   -7834.4242    88.473207    92.020967    310.93474 
     610    278.37193     6799.496    89.789949    93.653581    310.33542 
     620    279.69583     19869.09    88.282821    92.058797    311.81134 
     630     283.6036    30647.298    83.340324    85.648737    316.16781 
     640    287.74045    39321.214    76.070586    80.088424    320.77966 
     650    286.01373    49916.686    79.163086    83.371275    318.85467 
     660    281.42653    60045.657    87.919861    91.126521    313.74075 
     670    278.53657    66517.572    94.173435    96.416665    310.51896 
     680     279.3677    69423.293    92.549437    97.106687    311.44552 
     690    281.45045    69131.925    89.604302    93.803827    313.76742 
     700    284.79916    65397.574     84.23456    88.074287    317.50065 
     710     288.8363    54410.633    78.147691    81.972955    322.00134 
     720    291.36351    35501.738    75.182974    79.059626    324.81873 
     730    291.47258     14013.95    75.663356    80.117911    324.94032 
     740    290.41451   -5513.9197    77.641823     82.76828    323.76076 
     750    289.62161   -22594.284    80.295315    85.785173    322.87682 
     760     288.7122   -38717.958    82.118442    86.816156    321.86299 
     770    287.07071   -48278.346      87.4394    89.318407    320.03302 
     780    287.99762   -50151.082    84.056593     91.22373    321.06636 
     790    289.49323   -46744.851    82.521559    88.589623     322.7337 
     800    292.64526   -43114.729    77.247927    83.983131    326.24765 
     810    293.53981   -35753.168    77.372861    82.040268    327.24491 
     820    291.45693   -22534.878    81.989807    85.797219    324.92288 
     830    287.94381   -3568.3428    86.839037    92.027671    321.00637 
     840    286.05906    24121.274    91.002401     95.50515    318.90521 
     850    287.76085    55171.597     90.32594    93.052284     320.8024 
     860    291.89402    78505.236    83.511765    87.135553    325.41015 
     870    293.16901    88121.159    83.873018    85.404088    326.83154 
     880    292.49727    79149.957    84.187152    88.430452    326.08267 
     890    289.75931    54724.645    88.330894    93.482886    323.03033 
     900    286.39079    20911.796    95.975093    98.402832    319.27503 
     910    287.00971   -15805.859    94.711338    100.10163    319.96501 
     920    289.54189   -46507.238    91.922192    96.240336    322.78795 
     930    294.11812   -66012.307    84.634325    89.494749    327.88963 
     940    296.06929    -72254.43    83.077153    86.289403    330.06484 
     950    295.21692   -69436.036    84.334154    88.568958     329.1146 
     960    289.55804   -61834.438    102.12639    93.513277    322.80595 
     970     292.5438   -61211.611     89.59938    94.438382    326.13454 
     980    294.33254   -61736.749    87.976168    92.220651    328.12867 
     990    294.90225   -61324.535    87.739763    91.823759     328.7638 
    1000    293.90003   -58372.802    90.246457    94.328132     327.6465 
Loop time of 4.19866 on 16 procs for 1000 steps with 375 atoms

Performance: 20.578 ns/day, 1.166 hours/ns, 238.171 timesteps/s
130.4% CPU use with 4 MPI tasks x 4 OpenMP threads

MPI task timing breakdown:
Section |  min time  |  avg time  |  max time  |%varavg| %total
---------------------------------------------------------------
Pair    | 1.1427     | 1.2339     | 1.314      |   6.0 | 29.39
Bond    | 0.0026124  | 0.0028059  | 0.0030112  |   0.3 |  0.07
Neigh   | 0.50856    | 0.5093     | 0.51058    |   0.1 | 12.13
Comm    | 0.88635    | 1.0114     | 1.0846     |   7.7 | 24.09
Output  | 0.01496    | 0.015281   | 0.016235   |   0.4 |  0.36
Modify  | 0.0072165  | 0.0077693  | 0.0082483  |   0.5 |  0.19
Other   |            | 1.418      |            |       | 33.78

Nlocal:    93.75 ave 106 max 85 min
Histogram: 1 0 1 0 1 0 0 0 0 1
Nghost:    4647.5 ave 4677 max 4608 min
Histogram: 1 0 0 1 0 0 0 0 0 2
Neighs:    43356.2 ave 49294 max 38602 min
Histogram: 1 0 1 0 1 0 0 0 0 1

Total # of neighbors = 173425
Ave neighs/atom = 462.467
Ave special neighs/atom = 2
Neighbor list builds = 310
Dangerous builds = 0
quit
