LAMMPS (11 May 2018)
  using 4 OpenMP thread(s) per MPI task
units real
atom_style full

bond_style table linear 301
pair_style polir/vdw 6.0

neigh_modify every 1 delay 1
neighbor 0.3 bin

read_data "2wat.data"
  orthogonal box = (0 0 0) to (3 3 3)
  1 by 1 by 1 MPI processor grid
  reading atoms ...
  6 atoms
  scanning bonds ...
  2 = max bonds/atom
  reading bonds ...
  4 bonds
  2 = max # of 1-2 neighbors
  1 = max # of 1-3 neighbors
  1 = max # of 1-4 neighbors
  2 = max # of special neighbors

# VdW interactions
pair_coeff 1 1 7.61978e-09 -4.07504e-07 5.80846e-06 -0.00292171
pair_coeff 1 2 0.0 0.0 0.0 0.0
pair_coeff 2 2 0.0 0.0 0.0 0.0

bond_coeff 1 PS_bond_potential.table POLIR
WARNING: 5 of 301 force values in table are inconsistent with -dE/dr.
  Should only be flagged at inflection points (../bond_table.cpp:380)

timestep 1.0

variable temp equal 300.0
velocity all create ${temp} 1091823 rot yes dist gaussian
velocity all create 300 1091823 rot yes dist gaussian
fix f1 all nvt temp ${temp} ${temp} 1000.0
fix f1 all nvt temp 300 ${temp} 1000.0
fix f1 all nvt temp 300 300 1000.0

thermo 10
thermo_style custom step temp press pe ebond ke

dump d1 all dcd 10 dump.dcd
dump_modify d1 unwrap yes

run 1000
Neighbor list info ...
  update every 1 steps, delay 1 steps, check yes
  max neighbors/atom: 2000, page size: 100000
  master list distance cutoff = 6.3
  ghost atom cutoff = 6.3
  binsize = 3.15, bins = 1 1 1
  1 neighbor lists, perpetual/occasional/extra = 1 0 0
  (1) pair polir/vdw, perpetual
      attributes: half, newton on
      pair build: half/bin/newton
      stencil: half/bin/3d/newton
      bin: standard
Per MPI rank memory allocation (min/avg/max) = 8.657 | 8.657 | 8.657 Mbytes
Step Temp Press PotEng E_bond KinEng 
       0          300    -59573.38   0.60257214   0.60313839    4.4712151 
      10    303.73634   -9128.1156   0.49091243   0.49149051    4.5269017 
      20    285.36093    43854.863   0.87730464   0.87791669    4.2530337 
      30    263.00127    92564.703    1.4399665    1.4406306    3.9197842 
      40    245.87177    130605.68    1.8483045    1.8490323    3.6644853 
      50    235.98753    152850.74    2.0659803    2.0667752      3.51717 
      60    232.54597    165258.94    2.2708238    2.2716808    3.4658768 
      70    231.51386    172483.14    2.3741518    2.3750593    3.4504942 
      80    228.05212    177911.56    2.5237199    2.5246638    3.3989003 
      90    222.29911    180511.95    2.7079009    2.7088703    3.3131571 
     100    225.89384    174423.37    2.5730559    2.5740473    3.3667332 
     110    249.98171    151841.69    1.9496241     1.950644      3.72574 
     120    287.72624    112390.08    1.0289526      1.03002    4.2882863 
     130    316.46939    63641.657   0.39939353   0.40054294    4.7166757 
     140    322.82287    10493.227   0.32323229   0.32451816    4.8113682 
     150    311.46386   -40874.914   0.58136385   0.58286717    4.6420731 
     160    292.03163   -86936.311   0.98058697   0.98242522    4.3524541 
     170    270.21543   -122746.21    1.4811641    1.4835062    4.0273043 
     180    247.40297    -143856.2    2.0058942    2.0089794    3.6873063 
     190    226.34326   -156803.44    2.4533379    2.4574938    3.3734313 
     200    217.97529   -159745.63    2.6253138     2.630958    3.2487147 
     210    241.55078   -144141.49    2.1047627    2.1123663    3.6000849 
     220    294.15882   -96688.094    1.0023905    1.0123726    4.3841578 
     230    322.06814   -20568.376   0.40094709   0.41349963    4.8001198 
     240    281.04016    55995.238    1.2487431    1.2636619    4.1886366 
     250    236.40876     97703.51    2.3487536    2.3653998     3.523448 
     260    241.10098    94750.455    2.2412081    2.2586904    3.5933811 
     270    276.72486    66961.728    1.3949365    1.4124511    4.1243213 
     280    312.74466    35697.982   0.58831034   0.60545212    4.6611621 
     290    329.41962    9840.2376   0.28855154   0.30542621    4.9096865 
     300      316.485     -17273.4   0.53434247   0.55151697    4.7169084 
     310    276.48642   -49665.286    1.4897779    1.5082145    4.1207674 
     320    231.33535   -82716.285     2.385099    2.4061738    3.4478336 
     330    219.07274   -97772.435    2.6194553    2.6451185    3.2650711 
     340    252.18009   -85651.336    1.9232352    1.9562492    3.7585048 
     350    299.12219   -50807.487   0.91323911   0.95751993    4.4581322 
     360    328.78605   -7650.6682   0.26353424   0.32466987    4.9002438 
     370    334.04913    29999.253   0.19973859   0.28557418     4.978685 
     380     325.1602    54606.589   0.29040253   0.41126821     4.846204 
     390    316.79869    67503.004   0.47532866   0.64297002    4.7215835 
     400    312.81374    71158.325   0.58026834   0.80416397    4.6621917 
     410    305.60923    71958.804   0.70004209    0.9806618    4.5548154 
     420      288.289     74459.58     1.104785    1.4278871    4.2966737 
     430    262.88623    82080.163    1.6558424    1.9955761    3.9180696 
     440    244.45336    98046.158    2.1581714    2.4905514    3.6433452 
     450    245.55654    113055.92    2.1440438    2.4592594     3.659787 
     460    261.37141    120725.22    1.7878387    2.0917101    3.8954926 
     470    280.60103    118879.39    1.3368851    1.6469534    4.1820919 
     480    295.10982    112257.83   0.97085551    1.3147235    4.3983316 
     490    306.01418    103699.23   0.68107192    1.0963367    4.5608507 
     500    314.35593    96066.435   0.50604254    1.0310077    4.6851765 
     510     322.7017    86094.202   0.26395824   0.89595557    4.8095623 
     520    335.59257    70863.285  0.067474442   0.73321176    5.0016885 
     530    351.37677    46184.343  -0.18436576   0.40238997     5.236937 
     540    358.87001      11507.4  -0.24119914    0.1388401    5.3486167 
     550    343.21157   -30795.805   0.17404151   0.36242736    5.1152425 
     560    299.98522   -71582.966    1.1717808    1.2564878    4.4709948 
     570    247.84665   -95063.457    2.3126852    2.3520396    3.6939189 
     580    226.49466   -97127.869    2.7069327    2.7270291    3.3756878 
     590    252.19545   -85372.491    2.2197199    2.2311806    3.7587337 
     600    297.58408   -69037.306    1.2353825    1.2426326    4.4352081 
     610    331.25571    -48279.96   0.46160358    0.4666072    4.9370517 
     620    343.13282   -23762.729    0.2103548   0.21404371    5.1140687 
     630    333.98435     6558.911   0.38383055   0.38667002    4.9777195 
     640     305.4468    43590.255   0.98348022   0.98571046    4.5523945 
     650    261.10641    83631.381    2.0005973    2.0023482    3.8915431 
     660     228.9615    110357.99    2.8599385    2.8612913    3.4124538 
     670    250.41083    95669.985    2.2948769    2.2958971    3.7321356 
     680    317.09418    31947.581   0.82029576   0.82104739    4.7259876 
     690    337.07909   -53723.889    0.4262456   0.42679238    5.0238437 
     700    286.14293   -124381.89    1.5932079    1.5936079    4.2646886 
     710    235.52185   -157173.14    2.6189248    2.6192256    3.5102295 
     720    226.75343   -154940.81    2.7808004    2.7810373    3.3795445 
     730    244.32531   -133713.94    2.4572203    2.4574174    3.6414368 
     740    263.89423    -105176.7     2.062261     2.062434    3.9330928 
     750    279.51166   -78213.945    1.7626006    1.7627594    4.1658558 
     760    294.17022   -54899.435    1.4391773    1.4393279    4.3843278 
     770    311.93722   -31036.294    1.0015325    1.0016788     4.649128 
     780    332.20553   -1146.7579   0.53752971   0.53767413    4.9512079 
     790    346.32536    36856.523   0.25361926   0.25376327    5.1616505 
     800    336.10566    81276.496   0.43153568   0.43168032    5.0093356 
     810    298.01466    126127.56    1.2574841    1.2576301    4.4416254 
     820    256.79784    159275.15    2.2516327    2.2517806    3.8273279 
     830    235.94056    176183.32    2.8428769    2.8430273      3.51647 
     840    232.54321    179777.95     2.978397    2.9785507    3.4658358 
     850    236.11193    175554.84     2.840034    2.8401918    3.5190241 
     860    241.65777    166456.75    2.6585721     2.658735    3.6016795 
     870    246.98915    150587.12    2.4982427     2.498412    3.6811387 
     880    247.90616    131022.09     2.446268    2.4464453    3.6948059 
     890    244.58335    114752.77    2.4821298    2.4823173    3.6452825 
     900     245.7732    104775.68    2.3997671     2.399967    3.6630162 
     910    259.21326    96818.585    2.0945325    2.0947476    3.8633275 
     920    286.05393    79515.001    1.4445777    1.4448108    4.2633621 
     930    320.16932    49034.951   0.73505365   0.73530763    4.7718197 
     940     341.4642    7112.0677    0.2775153   0.27779251    5.0891996 
     950    334.18101   -36880.246   0.46896775   0.46927095    4.9806506 
     960     310.1983   -73643.662    1.0086567    1.0089891     4.623211 
     970    288.64819   -100711.66    1.5310528    1.5314189    4.3020272 
     980    276.88062   -119068.87    1.7847377    1.7851436    4.1266427 
     990    268.29474   -129407.76    1.9663333    1.9667873    3.9986783 
    1000    256.87009   -135760.02    2.2345489    2.2350625    3.8284047 
Loop time of 0.0321999 on 4 procs for 1000 steps with 6 atoms

Performance: 2683.242 ns/day, 0.009 hours/ns, 31056.036 timesteps/s
88.3% CPU use with 1 MPI tasks x 4 OpenMP threads

MPI task timing breakdown:
Section |  min time  |  avg time  |  max time  |%varavg| %total
---------------------------------------------------------------
Pair    | 0.013196   | 0.013196   | 0.013196   |   0.0 | 40.98
Bond    | 0.00018334 | 0.00018334 | 0.00018334 |   0.0 |  0.57
Neigh   | 0.0051801  | 0.0051801  | 0.0051801  |   0.0 | 16.09
Comm    | 0.0058177  | 0.0058177  | 0.0058177  |   0.0 | 18.07
Output  | 0.0043149  | 0.0043149  | 0.0043149  |   0.0 | 13.40
Modify  | 0.00069523 | 0.00069523 | 0.00069523 |   0.0 |  2.16
Other   |            | 0.002812   |            |       |  8.73

Nlocal:    6 ave 6 max 6 min
Histogram: 1 0 0 0 0 0 0 0 0 0
Nghost:    794 ave 794 max 794 min
Histogram: 1 0 0 0 0 0 0 0 0 0
Neighs:    661 ave 661 max 661 min
Histogram: 1 0 0 0 0 0 0 0 0 0

Total # of neighbors = 661
Ave neighs/atom = 110.167
Ave special neighs/atom = 2
Neighbor list builds = 191
Dangerous builds = 0
quit
