LAMMPS (11 May 2018)
  using 4 OpenMP thread(s) per MPI task
units real
atom_style full

bond_style table linear 301
pair_style polir/vdw 6.0

neigh_modify every 1 delay 1
neighbor 0.3 bin

read_data "1wat.data"
  orthogonal box = (0 0 0) to (5 5 5)
  1 by 1 by 1 MPI processor grid
  reading atoms ...
  3 atoms
  scanning bonds ...
  2 = max bonds/atom
  reading bonds ...
  2 bonds
  2 = max # of 1-2 neighbors
  1 = max # of 1-3 neighbors
  1 = max # of 1-4 neighbors
  2 = max # of special neighbors

# No non-bonded interactions
pair_coeff 1 1 7.61978e-09 -4.07504e-07 5.80846e-06 -0.00292171
pair_coeff 1 2 0.0 0.0 0.0 0.0
pair_coeff 2 2 0.0 0.0 0.0 0.0

bond_coeff 1 PS_bond_potential.table POLIR
WARNING: 5 of 301 force values in table are inconsistent with -dE/dr.
  Should only be flagged at inflection points (../bond_table.cpp:380)

timestep 1.0

variable temp equal 300.0
velocity all create ${temp} 1091823 rot yes dist gaussian
velocity all create 300 1091823 rot yes dist gaussian
fix f1 all nvt temp ${temp} ${temp} 1000.0
fix f1 all nvt temp 300 ${temp} 1000.0
fix f1 all nvt temp 300 300 1000.0

thermo 10
thermo_style custom step temp press pe ebond ke

dump d1 all dcd 10 dump.dcd
dump_modify d1 unwrap yes

run 1000
Neighbor list info ...
  update every 1 steps, delay 1 steps, check yes
  max neighbors/atom: 2000, page size: 100000
  master list distance cutoff = 6.3
  ghost atom cutoff = 6.3
  binsize = 3.15, bins = 2 2 2
  1 neighbor lists, perpetual/occasional/extra = 1 0 0
  (1) pair polir/vdw, perpetual
      attributes: half, newton on
      pair build: half/bin/newton
      stencil: half/bin/3d/newton
      bin: standard
Per MPI rank memory allocation (min/avg/max) = 8.604 | 8.604 | 8.604 Mbytes
Step Temp Press PotEng E_bond KinEng 
       0          300   -6596.9138   0.30156863   0.30156919     1.788486 
      10    300.97635    5573.5275   0.23289986   0.23290042    1.7943067 
      20    211.83119    17619.452   0.95364084    0.9536414    1.2628571 
      30    85.074132    27747.003    2.1534085     2.153409   0.50717965 
      40    5.3800612    33164.511    3.0031675    3.0031681  0.032073881 
      50    32.923196    31392.476    2.7050102    2.7050108   0.19627558 
      60    155.71413      22476.8    1.4805192    1.4805198   0.92830848 
      70    281.54161    9304.7995    0.4175822   0.41758276    1.6784441 
      80    300.24789   -5567.9406   0.32597887   0.32597943    1.7899638 
      90    194.18004   -18975.459    1.2843283    1.2843288    1.1576276 
     100    52.819719   -27762.441    2.4578912    2.4578917    0.3148911 
     110    8.7807629   -29804.264    2.7955672    2.7955678  0.052347572 
     120    118.89379    -24075.77    1.9363602    1.9363608   0.70879959 
     130    276.37991   -10648.975   0.59094548   0.59094605     1.647672 
     140    293.93586    7684.2676   0.33321932   0.33321988    1.7523339 
     150    128.14806     25031.84    1.7451534    1.7451539   0.76397003 
     160    12.028643    33040.724    2.9522362    2.9522368  0.071710199 
     170    127.00789    25508.563    1.7962564     1.796257   0.75717276 
     180    303.15536    7324.5007   0.29217286   0.29217342    1.8072971 
     190    272.24347   -12482.276   0.65723093   0.65723149    1.6230122 
     200    96.705945   -26477.585    2.1281234     2.128124   0.57652411 
     210    28.650354    -30033.49    2.7004505    2.7004511   0.17080253 
     220    160.29683    -23138.59    1.6168606    1.6168611   0.95562881 
     230    317.99669   -7320.0444   0.25636208   0.25636264    1.8957754 
     240    292.86264    11789.987   0.36409773   0.36409829    1.7459358 
     250    113.53034    27566.822    1.9572786    1.9572792   0.67682473 
     260    27.894483    33028.903    2.7635512    2.7635517   0.16629631 
     270    128.35045    26421.413    1.8001631    1.8001637   0.76517663 
     280    289.26066    12009.979   0.37564622   0.37564678    1.7244622 
     290    329.84399   -4134.8094   0.15208856   0.15208912    1.9664046 
     300    230.36048   -17971.099    1.0233637    1.0233643    1.3733217 
     310    96.662686     -26955.4       2.1858    2.1858006   0.57626621 
     320    23.071399   -30574.578    2.7648084    2.7648089   0.13754292 
     330    52.895527   -29280.715    2.5480959    2.5480964   0.31534304 
     340    158.58866   -23459.766    1.6656769    1.6656775   0.94544536 
     350    272.14574   -13810.416   0.65465334    0.6546539    1.6224295 
     360    334.77422   -1988.4645  0.081296098  0.081296659    1.9957967 
     370    301.46118    10557.209   0.29137412   0.29137468     1.797197 
     380    187.06701    22103.138    1.2707554     1.270756    1.1152224 
     390    67.617309     30404.01    2.3855926    2.3855932   0.40310871 
     400    13.805362    33972.266    3.0257559    3.0257565  0.082302324 
     410    53.700028    31386.783    2.6260728    2.6260733   0.32013917 
     420    167.15959    23409.364     1.536237    1.5362376   0.99654198 
     430    284.77298    11735.414   0.52864543   0.52864599    1.6977083 
     440    323.38106   -1471.6835   0.23744418   0.23744474     1.927875 
     450    258.24512   -14478.866   0.89348698   0.89348754    1.5395593 
     460    125.89997   -24645.457    2.0562827    2.0562832   0.75056778 
     470    19.365889   -30197.935    2.8867534    2.8867539   0.11545208 
     480    28.131638   -29729.935    2.7937401    2.7937406   0.16771014 
     490    156.85561   -23068.746    1.7773705    1.7773711   0.93511356 
     500    303.86721   -9841.0131   0.53194838   0.53194894    1.8115409 
     510    316.83721    7539.7626    0.3100047   0.31000526    1.8888631 
     520    156.18092    24541.994    1.6751697    1.6751703   0.93109129 
     530    19.562933    33866.499    3.0763829    3.0763834   0.11662678 
     540    102.27239    28928.659    2.2756158    2.2756163   0.60970914 
     550    299.74776    12075.091   0.53351122   0.53351178    1.7869823 
     560    323.14049   -8474.7118   0.40974489   0.40974545    1.9264408 
     570    149.96967   -24956.238    1.9096092    1.9096098   0.89406222 
     580    29.878372   -31221.356    2.9068926    2.9068932    0.1781235 
     590    135.14526   -26209.218    2.0838878    2.0838883   0.80568472 
     600     324.6477   -10812.665   0.42762875   0.42762931    1.9354262 
     610    332.92531     9752.709   0.29167525   0.29167581    1.9847742 
     620    136.66184    27820.822    1.9855225    1.9855231     0.814726 
     630     29.84996    34405.553    3.0352523    3.0352529   0.17795412 
     640    150.75718    26571.645    1.8149548    1.8149554   0.89875702 
     650    330.37006    9950.9583    0.3203923   0.32039286    1.9695408 
     660     340.2161    -8099.363   0.31407056   0.31407112    2.0282391 
     670    198.91771   -22304.086    1.5723483    1.5723489    1.1858718 
     680     56.50304   -30114.991    2.7712101    2.7712107   0.33684966 
     690    24.820346   -31609.669    3.0579799    3.0579805   0.14796947 
     700    117.60199   -27276.183    2.3003383    2.3003389   0.70109836 
     710    257.42366   -18049.953    1.1054758    1.1054763     1.534662 
     720    353.54807    -5674.698   0.20417495   0.20417551    2.1077193 
     730    350.15838     7629.617    0.1920878   0.19208836    2.0875113 
     740    244.91974    20450.521    1.0489638    1.0489643    1.4601185 
     750    109.03101    30235.497    2.3148974     2.314898   0.65000148 
     760    28.212161    35457.277    3.1600347    3.1600352   0.16819019 
     770    41.119089    34768.806    3.0920548    3.0920554   0.24513639 
     780    141.03048    28415.018     2.069667    2.0696676   0.84077015 
     790    273.93096    18028.099   0.91419485   0.91419542    1.6330723 
     800    359.34789     5511.955   0.23860179   0.23860235    2.1422956 
     810    345.49971   -7387.9004   0.41752661   0.41752717     2.059738 
     820    246.22477   -19294.391    1.3717985    1.3717991    1.4678986 
     830    103.87332    -28037.33    2.6091675     2.609168   0.61925328 
     840    11.838653   -32216.693    3.3154854     3.315486  0.070577552 
     850    39.713956   -31059.555    3.0772087    3.0772093   0.23675952 
     860    181.18551   -23996.721     1.997192    1.9971925    1.0801592 
     870    337.54115   -10794.648   0.62923404    0.6292346    2.0122921 
     880    359.65011     6837.454   0.35922139   0.35922195    2.1440974 
     890    194.82536    24481.525    1.7299939    1.7299944    1.1614748 
     900    25.615666    35795.627    3.4738244     3.473825   0.15271087 
     910     82.54013     32745.67    2.9372161    2.9372166    0.4920729 
     920    311.50125    16022.615   0.88516315   0.88516371    1.8570521 
     930    380.91188   -5978.7882   0.39962087   0.39962144    2.2708519 
     940    198.91286   -24590.998    2.0293297    2.0293303    1.1858429 
     950    31.644611    -33048.55    3.3564852    3.3564857   0.18865315 
     960    124.87705   -29216.743    2.6150754     2.615076   0.74446955 
     970    353.98579   -13925.138   0.68108816   0.68108872    2.1103288 
     980    397.91714    8185.7164   0.20203349   0.20203405    2.3722308 
     990    180.11983    28599.616    2.0752463    2.0752468     1.073806 
    1000    37.182571    37266.695    3.4961621    3.4961626   0.22166837 
Loop time of 0.00706005 on 4 procs for 1000 steps with 3 atoms

Performance: 12237.872 ns/day, 0.002 hours/ns, 141642.037 timesteps/s
52.5% CPU use with 1 MPI tasks x 4 OpenMP threads

MPI task timing breakdown:
Section |  min time  |  avg time  |  max time  |%varavg| %total
---------------------------------------------------------------
Pair    | 0.00081277 | 0.00081277 | 0.00081277 |   0.0 | 11.51
Bond    | 8.7976e-05 | 8.7976e-05 | 8.7976e-05 |   0.0 |  1.25
Neigh   | 0.00011468 | 0.00011468 | 0.00011468 |   0.0 |  1.62
Comm    | 0.00090361 | 0.00090361 | 0.00090361 |   0.0 | 12.80
Output  | 0.0040567  | 0.0040567  | 0.0040567  |   0.0 | 57.46
Modify  | 0.00053787 | 0.00053787 | 0.00053787 |   0.0 |  7.62
Other   |            | 0.0005465  |            |       |  7.74

Nlocal:    3 ave 3 max 3 min
Histogram: 1 0 0 0 0 0 0 0 0 0
Nghost:    189 ave 189 max 189 min
Histogram: 1 0 0 0 0 0 0 0 0 0
Neighs:    32 ave 32 max 32 min
Histogram: 1 0 0 0 0 0 0 0 0 0

Total # of neighbors = 32
Ave neighs/atom = 10.6667
Ave special neighs/atom = 2
Neighbor list builds = 19
Dangerous builds = 0
quit
